0000000000000000
0000000000000000
0000000000000000
0001111111111110
0000111111111110
0000000000111000
0000000000111000
0000000000111000
0000000000111000
0000000000111000
0000000000111000
0000000000111000
0000000000111000
0000000000111000
0000000000000000
0000000000000000
